sifdecoder -A pc64.lnx.gfo -st   BLOWEYA

 Problem name: BLOWEYA

 Double precision version will be formed

 The objective function uses 1 nonlinear group
 
 There are 2002 linear equality constraints
 
 There are 2001 free variables
 There are 2001 variables bounded from below and above 
 
 
 File successfully decoded
 CUTEST: tools (double precision version) compiled successfully
 CUTEst: ipopt (double precision version) compiled successfully

******************************************************************************
This program contains Ipopt, a library for large-scale nonlinear optimization.
 Ipopt is released as open source code under the Eclipse Public License (EPL).
         For more information visit http://projects.coin-or.org/Ipopt
******************************************************************************

This is Ipopt version trunk, running with linear solver ma57.

Number of nonzeros in equality constraint Jacobian...:    10003
Number of nonzeros in inequality constraint Jacobian.:        0
Number of nonzeros in Lagrangian Hessian.............:     8003

Total number of variables............................:     4002
                     variables with only lower bounds:        0
                variables with lower and upper bounds:     2001
                     variables with only upper bounds:        0
Total number of equality constraints.................:     2002
Total number of inequality constraints...............:        0
        inequality constraints with only lower bounds:        0
   inequality constraints with lower and upper bounds:        0
        inequality constraints with only upper bounds:        0

iter    objective    inf_pr   inf_du lg(mu)  ||d||  lg(rg) alpha_du alpha_pr  ls
   0 -3.6390523e-04 4.00e+00 1.65e-08  -1.0 0.00e+00    -  0.00e+00 0.00e+00   0
Reallocating memory for MA57: lfact (104671)
   1 -2.1412730e-02 8.06e-12 1.40e-02  -1.0 1.96e+04    -  9.21e-01 1.00e+00f  1
   2 -1.1827875e-02 6.36e-12 3.35e-02  -1.7 7.58e+04    -  8.76e-01 1.00e+00f  1
   3 -1.3733962e-02 8.07e-13 6.09e-03  -2.5 5.39e+04    -  9.24e-01 1.00e+00f  1
   4 -1.9070863e-02 3.68e-13 1.18e-04  -3.8 8.63e+03    -  9.83e-01 1.00e+00f  1
   5 -2.1841337e-02 9.46e-13 6.57e-05  -5.7 5.30e+02    -  8.94e-01 1.00e+00f  1
   6 -2.2337672e-02 5.17e-13 9.67e-16  -5.7 5.27e+01    -  1.00e+00 1.00e+00f  1
   7 -2.2742366e-02 9.16e-14 4.60e-07  -8.6 6.71e+00    -  9.36e-01 1.00e+00f  1
   8 -2.2780478e-02 1.58e-13 1.01e-15  -8.6 1.89e+00    -  1.00e+00 1.00e+00f  1
   9 -2.2781233e-02 3.95e-13 9.60e-16  -8.6 2.89e-01    -  1.00e+00 1.00e+00f  1

Number of Iterations....: 9

                                   (scaled)                 (unscaled)
Objective...............:  -2.2781232628774711e-02   -2.2781232628774711e-02
Dual infeasibility......:   9.6039056422014918e-16    9.6039056422014918e-16
Constraint violation....:   3.9496184101039944e-13    3.9496184101039944e-13
Complementarity.........:   4.0717357570402923e-09    4.0717357570402923e-09
Overall NLP error.......:   4.0717357570402923e-09    4.0717357570402923e-09


Number of objective function evaluations             = 10
Number of objective gradient evaluations             = 10
Number of equality constraint evaluations            = 10
Number of inequality constraint evaluations          = 0
Number of equality constraint Jacobian evaluations   = 10
Number of inequality constraint Jacobian evaluations = 0
Number of Lagrangian Hessian evaluations             = 9
Total CPU secs in IPOPT (w/o function evaluations)   =      0.254
Total CPU secs in NLP function evaluations           =      0.046

EXIT: Optimal Solution Found.

************************ CUTEst statistics ************************


 Package used            :  IPOPT
 Problem                 :  BLOWEYA   
 # variables             =            4002
 # constraints           =            2002
 # objective functions   =        0.2100000E+02
 # objective gradients   =        0.1100000E+02
 # objective Hessians    =        0.1000000E+02
 # Hessian-vector prdct  =        0.0000000E+00
 # constraints functions =        0.2200000E+02
 # constraints gradients =        0.1200000E+02
 # constraints Hessians  =        0.1000000E+02
 Exit code               =               0
 Final f                 =       -2.2781232628774711D-02
 Bounds feasibility      =        0.0000000000000000D+00
 Set up time             =            0.35 seconds
 Solve time              =            0.62 seconds


******************************************************************

